% Logging successfully configured
=====UNKNOWN=====
% time elapsed: 1800.02 s
%%%mzn-stat: initTime=0.012228174
%%%mzn-stat: nodes=903151
%%%mzn-stat: restarts=0
%%%mzn-stat: peakDepth=40
%%%mzn-stat: solveTime=1799.856232848
%%%mzn-stat: variables=1076
%%%mzn-stat: propagators=784
%%%mzn-stat: failures=902330
%%%mzn-stat: propagations=34918630
%%%mzn-stat: nogoods=902330
%%%mzn-stat: numAtomicConstraintsPropagated=0
%%%mzn-stat: allDifferentNumber1PropagationsTotal=4823082
%%%mzn-stat: allDifferentNumber1PropagationsThatFoundConflict=141176
%%%mzn-stat: allDifferentNumber1PropagationsThatPruned=3479297
%%%mzn-stat: allDifferentNumber1TotalValuesPruned=16403957
%%%mzn-stat: allDifferentNumber1TotalHallSetSizeConflict=5228756
%%%mzn-stat: allDifferentNumber1NumberOfConflicts=141176
%%%mzn-stat: allDifferentNumber1MaxHallSetSizeConflict=59
%%%mzn-stat: allDifferentNumber1TotalPruningHallSetSize=267058197
%%%mzn-stat: allDifferentNumber1NumberOfPruningExplanations=16403957
%%%mzn-stat: allDifferentNumber1MaxPruningHallSetSize=74
%%%mzn-stat: allDifferentNumber1TotalFixedEdgesAtConflict=5187619
%%%mzn-stat: allDifferentNumber1TotalVarsInvolvedInPruning=14078684
%%%mzn-stat: allDifferentNumber1MaxValuesPrunedFromSingleVar=7
%%%mzn-stat: allDifferentNumber1TotalSccSizeAtPruning=100301871
%%%mzn-stat: allDifferentNumber1NumberOfSccPruningCalls=3479297
%%%mzn-stat: circuitNumber2PropagationsThatFoundConflict=703528
%%%mzn-stat: circuitNumber2TotalFixedEdgesAtConflict=30042357
%%%mzn-stat: circuitNumber2NumberOfConflicts=703528
%%%mzn-stat: circuitNumber2PropagationsThatPruned=816722
%%%mzn-stat: circuitNumber2PropagationsTotal=2909228
%%%mzn-stat: AverageConflictSize=12.512725942836878
%%%mzn-stat: NumUnitNogoodsLearned=0
%%%mzn-stat: AverageLearnedNogoodLength=90.80670708055811
%%%mzn-stat: AverageBacktrackAmount=0
%%%mzn-stat: AverageLbd=26.166596478006937
%%%mzn-stat: 2AutonomousSearchNumBackupCalled=0
%%%mzn-stat: 2AutonomousSearchNumPredicatesRemoved=0
%%%mzn-stat: 2AutonomousSearchNumCalls=0
%%%mzn-stat: 2AutonomousSearchNumPredicatesAdded=7071
%%%mzn-stat: 2AutonomousSearchAverageSizeOfHeap=0
%%%mzn-stat: 2AutonomousSearchNumAssignedPredicatesEncountered=0
%%%mzn-stat-end
